09-routing/solutions/XSH-n20-k4-03.opt.sol
Route #1: 16 18 17 2
Route #2: 20 10 19 12 11
Route #3: 4 9 7 13 15
Route #4: 3 6 5 14 8 1
Cost 508
